\ENCODING=ISO-8859-1
\Problem name: master_ILP.lp

Minimize
 obj1: theta.0
Subject To
 c1: - 7.61220385635803 x.0 - 6.66835183496693 x.1 - 9.44414211095619 x.2
     - 5.01675567513699 x.3 - 9.88829440644263 x.4 - theta.0
     <= 7.00669440644263
Bounds
 0 <= x.0 <= 1
 0 <= x.1 <= 1
 0 <= x.2 <= 1
 0 <= x.3 <= 1
 0 <= x.4 <= 1
 0 <= theta.0 <= 1
Binaries
 x.0  x.1  x.2  x.3  x.4 
End
